NAME 
ROWS
 N  OBJ
 L  R0      
 L  R1      
 L  R2      
 E  R3      
 E  R4      
 E  R5      
 E  R6      
 E  R7      
 E  R8      
 E  R9      
 E  R10     
 E  R11     
 E  R12     
 E  R13     
 E  R14     
 E  R15     
 E  R16     
 E  R17     
COLUMNS
    MARKER    'MARKER'                 'INTORG'
    I0(12)    OBJ       -108
    I0(12)    R0        90
    I0(12)    R1        -58
    I0(12)    R2        -132
    I0(12)    R3        7
    I0(12)    R5        6
    I0(12)    R6        19
    I0(12)    R7        19
    I0(12)    R8        7
    I0(12)    R9        13
    I0(12)    R10       16
    I0(12)    R11       3
    I0(12)    R17       1
    I1(9)     OBJ       190
    I1(9)     R0        192
    I1(9)     R1        -17
    I1(9)     R2        -24
    I1(9)     R3        13
    I1(9)     R6        18
    I1(9)     R7        17
    I1(9)     R10       14
    I1(9)     R11       2
    I1(9)     R17       1
    I2(9)     OBJ       111
    I2(9)     R0        -26
    I2(9)     R1        -38
    I2(9)     R2        -122
    I2(9)     R3        16
    I2(9)     R4        6
    I2(9)     R7        4
    I2(9)     R8        6
    I2(9)     R10       1
    I2(9)     R17       1
    I3(9)     OBJ       131
    I3(9)     R0        172
    I3(9)     R1        -88
    I3(9)     R2        -182
    I3(9)     R4        11
    I3(9)     R5        3
    I3(9)     R8        5
    I3(9)     R10       1
    I3(9)     R11       14
    I3(9)     R17       1
    I4(11)    OBJ       9
    I4(11)    R0        29
    I4(11)    R1        85
    I4(11)    R2        -91
    I4(11)    R4        6
    I4(11)    R5        18
    I4(11)    R6        8
    I4(11)    R7        8
    I4(11)    R8        6
    I4(11)    R9        13
    I4(11)    R10       19
    I4(11)    R17       1
    I5(10)    OBJ       -17
    I5(10)    R0        65
    I5(10)    R1        -54
    I5(10)    R2        84
    I5(10)    R3        3
    I5(10)    R4        5
    I5(10)    R5        19
    I5(10)    R9        17
    I5(10)    R10       1
    I5(10)    R11       6
    I5(10)    R17       1
    I6(10)    OBJ       6
    I6(10)    R0        -137
    I6(10)    R1        -60
    I6(10)    R2        -8
    I6(10)    R3        10
    I6(10)    R4        7
    I6(10)    R6        14
    I6(10)    R9        18
    I6(10)    R10       17
    I6(10)    R11       11
    I6(10)    R17       1
    I7(10)    OBJ       18
    I7(10)    R0        161
    I7(10)    R1        99
    I7(10)    R2        80
    I7(10)    R4        1
    I7(10)    R5        15
    I7(10)    R7        7
    I7(10)    R8        4
    I7(10)    R9        17
    I7(10)    R10       19
    I7(10)    R17       1
    I8(9)     OBJ       171
    I8(9)     R0        169
    I8(9)     R1        -43
    I8(9)     R2        136
    I8(9)     R4        16
    I8(9)     R5        16
    I8(9)     R7        15
    I8(9)     R10       9
    I8(9)     R11       16
    I8(9)     R17       1
    MARKER    'MARKER'                 'INTEND'
    C9(8)     OBJ       -2
    C9(8)     R1        2
    C9(8)     R2        4
    C9(8)     R4        14
    C9(8)     R8        5
    C9(8)     R9        15
    C9(8)     R12       2
    C9(8)     R13       12
    C9(8)     R16       12
    C10(11)   OBJ       -2
    C10(11)   R0        2
    C10(11)   R1        7
    C10(11)   R2        9
    C10(11)   R3        11
    C10(11)   R4        7
    C10(11)   R6        11
    C10(11)   R8        19
    C10(11)   R10       9
    C10(11)   R14       10
    C10(11)   R15       -1
    C10(11)   R16       11
    C11(12)   OBJ       3
    C11(12)   R0        -4
    C11(12)   R1        -5
    C11(12)   R2        4
    C11(12)   R3        9
    C11(12)   R6        7
    C11(12)   R7        14
    C11(12)   R9        12
    C11(12)   R10       10
    C11(12)   R11       9
    C11(12)   R12       19
    C11(12)   R13       11
    C11(12)   R14       5
    C12(10)   OBJ       -1
    C12(10)   R0        9
    C12(10)   R1        6
    C12(10)   R2        -7
    C12(10)   R3        10
    C12(10)   R4        3
    C12(10)   R7        1
    C12(10)   R8        2
    C12(10)   R9        5
    C12(10)   R11       5
    C12(10)   R16       7
    C13(10)   OBJ       -7
    C13(10)   R0        6
    C13(10)   R1        -2
    C13(10)   R4        13
    C13(10)   R6        -1
    C13(10)   R8        19
    C13(10)   R10       17
    C13(10)   R11       15
    C13(10)   R12       15
    C13(10)   R13       11
    C13(10)   R14       5
    C14(15)   OBJ       4
    C14(15)   R0        2
    C14(15)   R1        6
    C14(15)   R2        7
    C14(15)   R3        1
    C14(15)   R5        5
    C14(15)   R6        16
    C14(15)   R7        18
    C14(15)   R8        14
    C14(15)   R9        7
    C14(15)   R10       9
    C14(15)   R11       14
    C14(15)   R12       11
    C14(15)   R13       4
    C14(15)   R14       18
    C14(15)   R15       18
    C15(1)    R3        1
    C16(1)    R4        1
    C17(1)    R5        1
    C18(1)    R6        1
    C19(1)    R7        1
    C20(1)    R8        1
    C21(1)    R9        1
    C22(1)    R10       1
    C23(1)    R11       1
    C24(1)    R12       1
    C25(1)    R13       1
    C26(1)    R14       1
    C27(1)    R15       1
    C28(1)    R16       1
    C29(1)    R17       1
RHS
    RHS1      R0        2.4145789473684209e+02
    RHS1      R1        -6.5652631578947336e+01
    RHS1      R2        -1.0516666666666663e+02
    RHS1      R3        93
    RHS1      R4        90
    RHS1      R5        82
    RHS1      R6        81
    RHS1      R7        55
    RHS1      R8        62
    RHS1      R9        75
    RHS1      R10       76
    RHS1      R11       86
    RHS1      R12       92
    RHS1      R13       73
    RHS1      R14       66
    RHS1      R15       68
    RHS1      R16       88
    RHS1      R17       3
BOUNDS
 UP BND1      I0(12)    1
 UP BND1      I1(9)     1
 UP BND1      I2(9)     1
 UP BND1      I3(9)     1
 UP BND1      I4(11)    1
 UP BND1      I5(10)    1
 UP BND1      I6(10)    1
 UP BND1      I7(10)    1
 UP BND1      I8(9)     1
ENDATA
